1 1632
2 1354
4 1295
28 1286
35 1283
43 1249
233 1246
273 1225
863 1215



1 1550
2 1389
3 1374
5 1355
9 1346
11 1335
13 1313
15 1286
20 1280
23 1240
95 1226
410 1225
555 1222
864 1208



1 1598
2 1451
3 1409
5 1379
6 1353
8 1346
9 1330
17 1304
19 1298
21 1260
34 1245
186 1231
216 1202
364 1199



1 1601
2 1404
3 1400
7 1339
10 1267
14 1242
84 1231
133 1223
684 1194



1 1582
2 1369
3 1337
5 1295
18 1281
59 1269
66 1244
100 1243
121 1226
168 1214
523 1171



